(set-info :smt-lib-version 2.6)
(set-logic UF)
(set-info :source |
Generated by: David Deharbe, CLEARSY
Generated on: 2019-09-09
Generator: bxml;pog;pog2smt (Atelier B)
Application: B-method
Target solver: CVC4, Z3
|)
(set-info :license "https://creativecommons.org/licenses/by-nc/4.0/")
(set-info :category "industrial")
(set-info :status unknown)
; Prelude
(declare-sort U 0)
(declare-fun |*i| (U U) U)
(declare-fun |+i| (U U) U)
(declare-fun |-i| (U U) U)
(declare-fun idiv (U U) U)
(declare-fun |*r| (U U) U)
(declare-fun |+r| (U U) U)
(declare-fun |-r| (U U) U)
(declare-fun rdiv (U U) U)
(declare-fun modulo (U U) U)
(declare-fun |<i| (U U) Bool)
(declare-fun |<=i| (U U) Bool)
(declare-fun |>i| (U U) Bool)
(declare-fun |>=i| (U U) Bool)
(declare-fun |<r| (U U) Bool)
(declare-fun |<=r| (U U) Bool)
(declare-fun |>r| (U U) Bool)
(declare-fun |>=r| (U U) Bool)
(declare-fun iuminus (U) U)
(declare-fun ruminus (U) U)
(declare-fun TRUE () U)
(declare-fun FALSE () U)
(assert (not (= TRUE FALSE)))
(declare-fun empty () U)
(declare-fun bool (Bool) U)
(declare-fun BOOL () U)
(declare-fun INT () U)
(declare-fun INTEGER () U)
(declare-fun NAT () U)
(declare-fun NAT1 () U)
(declare-fun NATURAL () U)
(declare-fun NATURAL1 () U)
(declare-fun FLOAT () U)
(declare-fun MaxInt () U)
(declare-fun MinInt () U)
(declare-fun |STRING| () U)
(declare-fun REAL () U)
(declare-fun set_prod (U U) U)
(declare-fun set_diff (U U) U)
(declare-fun mapplet (U U) U)
(declare-fun |**i| (U U) U)
(declare-fun |**r| (U U) U)
(declare-fun |+->| (U U) U)
(declare-fun |+->>| (U U) U)
(declare-fun |-->| (U U) U)
(declare-fun |-->>| (U U) U)
(declare-fun |<->| (U U) U)
(declare-fun |>+>| (U U) U)
(declare-fun |>->| (U U) U)
(declare-fun |>+>>| (U U) U)
(declare-fun |>->>| (U U) U)
(declare-fun |->| (U U) U)
(declare-fun interval (U U) U)
(declare-fun composition (U U) U)
(declare-fun binary_inter (U U) U)
(declare-fun restriction_head (U U) U)
(declare-fun semicolon (U U) U)
(declare-fun |<+| (U U) U)
(declare-fun |<-| (U U) U)
(declare-fun domain_subtraction (U U) U)
(declare-fun domain_restriction (U U) U)
(declare-fun |><| (U U) U)
(declare-fun parallel_product (U U) U)
(declare-fun binary_union (U U) U)
(declare-fun restriction_tail (U U) U)
(declare-fun concatenate (U U) U)
(declare-fun range_restriction (U U) U)
(declare-fun range_subtraction (U U) U)
(declare-fun image (U U) U)
(declare-fun apply (U U) U)
(declare-fun prj1 (U U) U)
(declare-fun prj2 (U U) U)
(declare-fun iterate (U U) U)
(declare-fun |const| (U U) U)
(declare-fun rank (U U) U)
(declare-fun father (U U) U)
(declare-fun subtree (U U) U)
(declare-fun arity (U U) U)
(declare-fun |+f| (U U) U)
(declare-fun |-f| (U U) U)
(declare-fun |*f| (U U) U)
(declare-fun |fdiv| (U U) U)
(declare-fun tbin (U U U) U)
(declare-fun son (U U U) U)
(declare-fun mem (U U) Bool)
(declare-fun subset (U U) Bool)
(declare-fun strict_subset (U U) Bool)
(declare-fun |<=f| (U U) Bool)
(declare-fun |<f| (U U) Bool)
(declare-fun |>=f| (U U) Bool)
(declare-fun |>f| (U U) Bool)
(declare-fun imax (U) U)
(declare-fun imin (U) U)
(declare-fun rmax (U) U)
(declare-fun rmin (U) U)
(declare-fun card (U) U)
(declare-fun dom (U) U)
(declare-fun ran (U) U)
(declare-fun POW (U) U)
(declare-fun POW1 (U) U)
(declare-fun FIN (U) U)
(declare-fun FIN1 (U) U)
(declare-fun union (U) U)
(declare-fun inter (U) U)
(declare-fun seq (U) U)
(declare-fun seq1 (U) U)
(declare-fun iseq (U) U)
(declare-fun iseq1 (U) U)
(declare-fun inverse (U) U)
(declare-fun size (U) U)
(declare-fun perm (U) U)
(declare-fun first (U) U)
(declare-fun last (U) U)
(declare-fun id (U) U)
(declare-fun closure (U) U)
(declare-fun closure1 (U) U)
(declare-fun tail (U) U)
(declare-fun front (U) U)
(declare-fun reverse (U) U)
(declare-fun rev (U) U)
(declare-fun conc (U) U)
(declare-fun succ (U) U)
(declare-fun pred (U) U)
(declare-fun rel (U) U)
(declare-fun fnc (U) U)
(declare-fun real (U) U)
(declare-fun floor (U) U)
(declare-fun ceiling (U) U)
(declare-fun tree (U) U)
(declare-fun btree (U) U)
(declare-fun top (U) U)
(declare-fun sons (U) U)
(declare-fun prefix (U) U)
(declare-fun postfix (U) U)
(declare-fun sizet (U) U)
(declare-fun mirror (U) U)
(declare-fun left (U) U)
(declare-fun right (U) U)
(declare-fun infix (U) U)
(declare-fun ubin (U) U)
(declare-fun SEQ (U) U)
(declare-fun SET (U) U)
; Opaque formulas
(declare-fun e0 () U)
(declare-fun e6 () U)
(declare-fun g_s0_1 () U)
(declare-fun g_s1_2 () U)
(declare-fun g_s10_12 () U)
(declare-fun g_s11_13 () U)
(declare-fun g_s12_14 () U)
(declare-fun g_s13_15 () U)
(declare-fun g_s14_16 () U)
(declare-fun g_s15_17 () U)
(declare-fun g_s16_18 () U)
(declare-fun g_s17_19 () U)
(declare-fun g_s18_20 () U)
(declare-fun g_s19_22 () U)
(declare-fun g_s2_4 () U)
(declare-fun g_s20_21 () U)
(declare-fun g_s21_23 () U)
(declare-fun g_s22_24 () U)
(declare-fun g_s24_25 () U)
(declare-fun g_s25$1_26 () U)
(declare-fun g_s28_27 () U)
(declare-fun g_s3_3 () U)
(declare-fun g_s30$1_28 () U)
(declare-fun g_s4_5 () U)
(declare-fun g_s5_7 () U)
(declare-fun g_s6_8 () U)
(declare-fun g_s7_9 () U)
(declare-fun g_s8_10 () U)
(declare-fun g_s9_11 () U)
; Defines
(define-fun |def_B definitions| () Bool (and (= NAT (interval e0 MaxInt)) (= INT (interval MinInt MaxInt))))
(define-fun |def_ctx| () Bool (and (not (= g_s0_1 empty)) (not (= g_s1_2 empty)) (= g_s2_4 (interval (iuminus g_s3_3) g_s3_3)) (= g_s4_5 (interval e0 g_s3_3)) (= g_s5_7 (interval e6 g_s3_3)) (subset g_s5_7 g_s4_5) (subset g_s4_5 g_s2_4) (subset g_s4_5 NAT) (subset g_s5_7 NAT1) (subset g_s2_4 INT) (mem g_s6_8 g_s2_4) (mem g_s6_8 g_s4_5) (not (mem g_s6_8 g_s5_7)) (mem g_s7_9 g_s2_4) (not (mem g_s7_9 g_s4_5)) (= g_s8_10 (interval (iuminus g_s3_3) g_s3_3)) (subset g_s8_10 INT) (subset g_s9_11 g_s0_1) (mem g_s10_12 g_s0_1) (mem g_s10_12 g_s9_11) (mem g_s11_13 g_s0_1) (not (mem g_s11_13 g_s9_11)) (mem g_s12_14 (|+->| NAT g_s0_1)) (mem g_s12_14 (perm g_s9_11)) (= (card g_s9_11) g_s13_15) (subset g_s14_16 g_s1_2) (mem g_s15_17 g_s1_2) (mem g_s15_17 g_s14_16) (mem g_s16_18 g_s1_2) (not (mem g_s16_18 g_s14_16)) (mem g_s17_19 (|+->| NAT g_s1_2)) (mem g_s17_19 (perm g_s14_16)) (= (card g_s14_16) g_s18_20)))
(define-fun |def_seext| () Bool true)
(define-fun |def_lprp| () Bool true)
(define-fun |def_inprp| () Bool true)
(define-fun |def_inext| () Bool true)
(define-fun |def_inv| () Bool (and (= (dom g_s19_22) g_s20_21) (mem g_s19_22 (|+->| g_s14_16 g_s4_5)) (mem g_s21_23 (|+->| g_s14_16 g_s4_5)) (subset g_s22_24 g_s14_16) (subset g_s20_21 g_s14_16)))
(define-fun |def_ass| () Bool true)
(define-fun |def_cst| () Bool true)
(define-fun |def_sets| () Bool true)
; PO group 0 
(push 1)
(assert |def_B definitions|)
(assert |def_ctx|)
(assert |def_cst|)
(assert |def_lprp|)
(assert |def_inprp|)
(assert |def_inext|)
(assert |def_seext|)
(assert |def_inv|)
(assert |def_ass|)
(assert (mem g_s24_25 g_s1_2))
(assert (mem g_s24_25 g_s14_16))
(assert (mem g_s24_25 (dom g_s21_23)))
(define-fun lh_1 () Bool (mem g_s25$1_26 g_s2_4))
; PO 1 in group 0
(assert (not (=> lh_1 (mem g_s21_23 (|+->| (dom g_s21_23) (ran g_s21_23))))))
(check-sat)
(pop 1)
; PO group 1 
(push 1)
(assert |def_B definitions|)
(assert |def_ctx|)
(assert |def_cst|)
(assert |def_lprp|)
(assert |def_inprp|)
(assert |def_inext|)
(assert |def_seext|)
(assert |def_inv|)
(assert |def_ass|)
(assert (mem g_s28_27 g_s1_2))
(assert (mem g_s28_27 g_s14_16))
(define-fun lh_1 () Bool (mem g_s28_27 (dom g_s21_23)))
(define-fun lh_2 () Bool (mem g_s25$1_26 g_s2_4))
; PO 1 in group 1
(assert (not (=> (and lh_1 lh_2) (mem g_s21_23 (|+->| (dom g_s21_23) (ran g_s21_23))))))
(set-info :status unknown)
(check-sat)
(pop 1)
; PO group 2 
(push 1)
(assert |def_B definitions|)
(assert |def_ctx|)
(assert |def_cst|)
(assert |def_lprp|)
(assert |def_inprp|)
(assert |def_inext|)
(assert |def_seext|)
(assert |def_inv|)
(assert |def_ass|)
(assert (mem g_s24_25 g_s1_2))
(assert (mem g_s24_25 g_s14_16))
(assert (mem g_s24_25 (dom g_s19_22)))
(define-fun lh_1 () Bool (mem g_s30$1_28 g_s2_4))
; PO 1 in group 2
(assert (not (=> lh_1 (mem g_s19_22 (|+->| (dom g_s19_22) (ran g_s19_22))))))
(set-info :status unknown)
(check-sat)
(pop 1)
(exit)